x = 19;
y = 16;
c = 71;
n = 22;

p = [35  73  68  48  36  47  91  11  35  52  84  85  37  84  91  79  35  95  21  62  22  43];
w = [9  7  8  10  1  7  10  2  8  6  7  5  3  2  9  7  1  7  7  10  1  2];
s = [12  5  12  14  11  4  16  7  5  3  1  8  1  15  9  13  7  16  9  9  13  13];
